108,269,u,graph,2,Int64,simplegraph
1,13
1,14
2,3
2,14
2,15
3,4
3,15
3,16
4,5
4,16
4,17
5,6
5,17
5,18
6,7
6,18
7,8
7,19
7,20
8,9
8,20
9,10
9,21
9,22
10,11
10,22
10,23
11,23
11,24
12,24
13,14
13,25
14,15
14,25
14,26
15,16
15,27
16,17
16,27
16,28
17,18
17,28
17,29
18,19
18,29
18,30
19,20
19,30
19,31
20,21
20,31
20,32
21,22
21,32
21,33
22,23
22,33
22,34
23,24
23,34
23,35
24,35
24,36
25,26
25,37
25,38
26,27
26,38
26,39
27,28
27,39
27,40
28,29
28,40
28,41
29,30
29,41
29,42
30,42
30,43
31,32
31,43
32,33
32,44
33,34
33,45
33,46
34,35
34,46
34,47
35,36
35,47
35,48
36,48
37,49
38,39
38,49
38,50
39,40
39,50
39,51
40,41
40,51
41,42
41,52
41,53
42,43
42,53
42,54
43,44
43,54
43,55
44,45
44,55
44,56
45,46
45,56
46,47
46,57
46,58
47,48
47,58
47,59
48,59
48,60
49,50
49,61
49,62
50,51
50,62
50,63
51,52
51,63
51,64
52,53
52,64
52,65
53,54
53,65
53,66
54,55
54,66
54,67
55,56
55,67
55,68
56,57
56,68
56,69
57,58
57,69
57,70
58,59
58,70
58,71
59,60
59,71
59,72
60,72
61,62
61,73
62,63
62,73
62,74
63,64
63,74
64,65
64,75
64,76
65,66
65,76
65,77
66,67
66,77
66,78
67,68
67,78
67,79
68,69
68,79
68,80
69,70
69,80
69,81
70,81
70,82
71,72
71,82
71,83
72,83
72,84
73,74
73,85
73,86
74,75
74,86
74,87
75,76
75,87
75,88
76,77
76,88
76,89
77,78
77,89
77,90
78,79
78,90
78,91
79,80
79,91
79,92
80,81
80,92
81,82
81,93
81,94
82,83
82,94
82,95
83,84
83,95
83,96
84,96
85,86
85,97
86,87
86,97
86,98
87,88
87,98
87,99
88,89
88,99
88,100
89,90
89,100
89,101
90,91
90,101
90,102
91,92
91,102
91,103
92,93
92,103
92,104
93,94
93,104
93,105
94,95
94,105
94,106
95,96
95,106
95,107
96,107
96,108
97,98
98,99
99,100
100,101
101,102
102,103
103,104
104,105
105,106
106,107
107,108
